p cnf 375 1079
1 0
2 0
3 0
4 0
5 0
6 0
7 0
8 0
9 0
10 0
-11 0
-12 13 0
-14 13 0
-15 13 0
-16 13 0
-17 13 0
13 -18 0
13 -19 0
-20 13 0
-21 13 0
13 -22 0
13 -23 0
13 -24 0
-25 13 0
-26 13 0
27 0
1 -13 0
-1 13 0
-14 28 0
-15 28 0
-16 28 0
-17 28 0
-18 28 0
-19 28 0
-20 28 0
-21 28 0
-22 28 0
-23 28 0
-24 28 0
-25 28 0
-26 28 0
29 0
30 -28 0
-30 28 0
-15 31 0
-16 31 0
-17 31 0
-18 31 0
-19 31 0
-20 31 0
-21 31 0
-22 31 0
-23 31 0
-24 31 0
-25 31 0
-26 31 0
32 0
33 -31 0
-33 31 0
-16 34 0
-17 34 0
-18 34 0
-19 34 0
-20 34 0
-21 34 0
-22 34 0
-23 34 0
-24 34 0
-25 34 0
-26 34 0
35 0
36 -34 0
-36 34 0
-17 37 0
-18 37 0
-19 37 0
-20 37 0
-21 37 0
-22 37 0
-23 37 0
-24 37 0
-25 37 0
-26 37 0
38 0
39 -37 0
-39 37 0
-18 40 0
-19 40 0
-20 40 0
-21 40 0
-22 40 0
-23 40 0
-24 40 0
-25 40 0
-26 40 0
41 0
42 -40 0
-42 40 0
-19 43 0
-20 43 0
-21 43 0
-22 43 0
-23 43 0
-24 43 0
-25 43 0
-26 43 0
44 0
45 -43 0
-45 43 0
46 -43 0
-46 43 0
47 -43 0
-47 43 0
48 -43 0
-48 43 0
-23 49 0
-24 49 0
-25 49 0
-26 49 0
-19 49 0
-20 49 0
-21 49 0
-22 49 0
50 0
51 -49 0
-51 49 0
52 -43 0
-52 43 0
53 -43 0
-53 43 0
54 -43 0
-54 43 0
55 -56 0
-57 55 0
-58 55 0
55 -59 0
-60 55 0
55 -61 0
55 -62 0
55 -63 0
55 -64 0
-65 55 0
66 0
2 -55 0
-2 55 0
-57 67 0
-58 67 0
-59 67 0
-60 67 0
-61 67 0
-62 67 0
-63 67 0
-64 67 0
-65 67 0
68 0
69 -67 0
-69 67 0
-58 70 0
-59 70 0
-60 70 0
-61 70 0
-62 70 0
-63 70 0
-64 70 0
-65 70 0
71 0
72 -70 0
-72 70 0
-59 73 0
-60 73 0
-61 73 0
-62 73 0
-63 73 0
-64 73 0
-65 73 0
74 0
75 -73 0
-75 73 0
-60 76 0
-61 76 0
-62 76 0
-63 76 0
-64 76 0
-65 76 0
77 0
78 -76 0
-78 76 0
79 -76 0
-79 76 0
80 -76 0
-80 76 0
81 -76 0
-81 76 0
82 -76 0
-82 76 0
83 -76 0
-83 76 0
-84 85 0
-86 85 0
-87 85 0
-88 85 0
-89 85 0
85 -90 0
-91 85 0
-92 85 0
-93 85 0
-94 85 0
85 -95 0
85 -96 0
97 0
3 -85 0
-3 85 0
-86 98 0
-87 98 0
-88 98 0
-89 98 0
-90 98 0
-91 98 0
-92 98 0
-93 98 0
-94 98 0
-95 98 0
-96 98 0
99 0
100 -98 0
-100 98 0
-87 101 0
-88 101 0
-89 101 0
-90 101 0
-91 101 0
-92 101 0
-93 101 0
-94 101 0
-95 101 0
-96 101 0
102 0
103 -101 0
-103 101 0
-88 104 0
-89 104 0
-90 104 0
-91 104 0
-92 104 0
-93 104 0
-94 104 0
-95 104 0
-96 104 0
105 0
106 -104 0
-106 104 0
-89 107 0
-90 107 0
-91 107 0
-92 107 0
-93 107 0
-94 107 0
-95 107 0
-96 107 0
108 0
109 -107 0
-109 107 0
110 -107 0
-110 107 0
111 -107 0
-111 107 0
112 -107 0
-112 107 0
113 -107 0
-113 107 0
114 -107 0
-114 107 0
115 -107 0
-115 107 0
116 -107 0
-116 107 0
-117 118 0
-119 118 0
118 -120 0
-121 118 0
-122 118 0
118 -123 0
-124 118 0
118 -125 0
-126 118 0
-127 118 0
118 -128 0
118 -129 0
118 -130 0
118 -131 0
132 0
4 -118 0
-4 118 0
-119 133 0
-120 133 0
-121 133 0
-122 133 0
-123 133 0
-124 133 0
-125 133 0
-126 133 0
-127 133 0
-128 133 0
-129 133 0
-130 133 0
-131 133 0
134 0
135 -133 0
-135 133 0
-120 136 0
-121 136 0
-122 136 0
-123 136 0
-124 136 0
-125 136 0
-126 136 0
-127 136 0
-128 136 0
-129 136 0
-130 136 0
-131 136 0
137 0
138 -136 0
-138 136 0
-121 139 0
-122 139 0
-123 139 0
-124 139 0
-125 139 0
-126 139 0
-127 139 0
-128 139 0
-129 139 0
-130 139 0
-131 139 0
140 0
141 -139 0
-141 139 0
-122 142 0
-123 142 0
-124 142 0
-125 142 0
-126 142 0
-127 142 0
-128 142 0
-129 142 0
-130 142 0
-131 142 0
143 0
144 -142 0
-144 142 0
-123 145 0
-124 145 0
-125 145 0
-126 145 0
-127 145 0
-128 145 0
-129 145 0
-130 145 0
-131 145 0
146 0
147 -145 0
-147 145 0
-124 148 0
-125 148 0
-126 148 0
-127 148 0
-128 148 0
-129 148 0
-130 148 0
-131 148 0
149 0
150 -148 0
-150 148 0
-125 151 0
-126 151 0
-127 151 0
-128 151 0
-129 151 0
-130 151 0
-131 151 0
152 0
153 -151 0
-153 151 0
154 -151 0
-154 151 0
155 -151 0
-155 151 0
156 -151 0
-156 151 0
157 -151 0
-157 151 0
158 -151 0
-158 151 0
159 -151 0
-159 151 0
-160 161 0
-162 161 0
-163 161 0
161 -164 0
-165 161 0
161 -166 0
161 -167 0
-168 161 0
161 -169 0
-170 161 0
-171 161 0
172 0
5 -161 0
-5 161 0
-162 173 0
-163 173 0
-164 173 0
-165 173 0
-166 173 0
-167 173 0
-168 173 0
-169 173 0
-170 173 0
-171 173 0
174 0
175 -173 0
-175 173 0
-163 176 0
-164 176 0
-165 176 0
-166 176 0
-167 176 0
-168 176 0
-169 176 0
-170 176 0
-171 176 0
177 0
178 -176 0
-178 176 0
-164 179 0
-165 179 0
-166 179 0
-167 179 0
-168 179 0
-169 179 0
-170 179 0
-171 179 0
180 0
181 -179 0
-181 179 0
-165 182 0
-166 182 0
-167 182 0
-168 182 0
-169 182 0
-170 182 0
-171 182 0
183 0
184 -182 0
-184 182 0
185 -182 0
-185 182 0
186 -182 0
-186 182 0
187 -182 0
-187 182 0
188 -182 0
-188 182 0
189 -182 0
-189 182 0
190 -182 0
-190 182 0
-191 192 0
-193 192 0
-194 192 0
-195 192 0
-196 192 0
192 -197 0
-198 192 0
-199 192 0
-200 192 0
192 -201 0
192 -202 0
203 0
6 -192 0
-6 192 0
-193 204 0
-194 204 0
-195 204 0
-196 204 0
-197 204 0
-198 204 0
-199 204 0
-200 204 0
-201 204 0
-202 204 0
205 0
206 -204 0
-206 204 0
-194 207 0
-195 207 0
-196 207 0
-197 207 0
-198 207 0
-199 207 0
-200 207 0
-201 207 0
-202 207 0
208 0
209 -207 0
-209 207 0
-195 210 0
-196 210 0
-197 210 0
-198 210 0
-199 210 0
-200 210 0
-201 210 0
-202 210 0
211 0
212 -210 0
-212 210 0
-196 213 0
-197 213 0
-198 213 0
-199 213 0
-200 213 0
-201 213 0
-202 213 0
214 0
215 -213 0
-215 213 0
-197 216 0
-198 216 0
-199 216 0
-200 216 0
-201 216 0
-202 216 0
217 0
218 -216 0
-218 216 0
219 -216 0
-219 216 0
220 -216 0
-220 216 0
221 -216 0
-221 216 0
222 -216 0
-222 216 0
223 -216 0
-223 216 0
224 -225 0
-226 224 0
-227 224 0
224 -228 0
-229 224 0
-230 224 0
224 -231 0
224 -232 0
-233 224 0
224 -234 0
-235 224 0
-236 224 0
224 -237 0
224 -238 0
-239 224 0
240 0
7 -224 0
-7 224 0
-226 241 0
-227 241 0
-228 241 0
-229 241 0
-230 241 0
-231 241 0
-232 241 0
-233 241 0
-234 241 0
-235 241 0
-236 241 0
-237 241 0
-238 241 0
-239 241 0
242 0
243 -241 0
-243 241 0
-227 244 0
-228 244 0
-229 244 0
-230 244 0
-231 244 0
-232 244 0
-233 244 0
-234 244 0
-235 244 0
-236 244 0
-237 244 0
-238 244 0
-239 244 0
245 0
246 -244 0
-246 244 0
-228 247 0
-229 247 0
-230 247 0
-231 247 0
-232 247 0
-233 247 0
-234 247 0
-235 247 0
-236 247 0
-237 247 0
-238 247 0
-239 247 0
248 0
249 -247 0
-249 247 0
-229 250 0
-230 250 0
-231 250 0
-232 250 0
-233 250 0
-234 250 0
-235 250 0
-236 250 0
-237 250 0
-238 250 0
-239 250 0
251 0
252 -250 0
-252 250 0
-230 253 0
-231 253 0
-232 253 0
-233 253 0
-234 253 0
-235 253 0
-236 253 0
-237 253 0
-238 253 0
-239 253 0
254 0
255 -253 0
-255 253 0
-231 256 0
-232 256 0
-233 256 0
-234 256 0
-235 256 0
-236 256 0
-237 256 0
-238 256 0
-239 256 0
257 0
258 -256 0
-258 256 0
-232 259 0
-233 259 0
-234 259 0
-235 259 0
-236 259 0
-237 259 0
-238 259 0
-239 259 0
260 0
261 -259 0
-261 259 0
-233 262 0
-234 262 0
-235 262 0
-236 262 0
-237 262 0
-238 262 0
-239 262 0
263 0
264 -262 0
-264 262 0
265 -262 0
-265 262 0
266 -262 0
-266 262 0
267 -262 0
-267 262 0
268 -262 0
-268 262 0
269 -262 0
-269 262 0
270 -262 0
-270 262 0
-125 271 0
-126 271 0
-127 271 0
-128 271 0
-129 271 0
-130 271 0
-131 271 0
-272 271 0
271 -273 0
271 -274 0
-275 271 0
276 0
8 -271 0
-8 271 0
-125 277 0
-126 277 0
-127 277 0
-128 277 0
-129 277 0
-130 277 0
-131 277 0
-273 277 0
-274 277 0
-275 277 0
278 0
279 -277 0
-279 277 0
-125 280 0
-126 280 0
-127 280 0
-128 280 0
-129 280 0
-130 280 0
-131 280 0
-274 280 0
-275 280 0
281 0
282 -280 0
-282 280 0
-125 283 0
-126 283 0
-127 283 0
-128 283 0
-129 283 0
-130 283 0
-131 283 0
-275 283 0
284 0
285 -283 0
-285 283 0
-286 287 0
-288 287 0
-289 287 0
-290 287 0
-291 287 0
287 -292 0
-293 287 0
287 -294 0
-295 287 0
287 -296 0
-297 287 0
-298 287 0
287 -299 0
287 -300 0
301 0
9 -287 0
-9 287 0
-288 302 0
-289 302 0
-290 302 0
-291 302 0
-292 302 0
-293 302 0
-294 302 0
-295 302 0
-296 302 0
-297 302 0
-298 302 0
-299 302 0
-300 302 0
303 0
304 -302 0
-304 302 0
-289 305 0
-290 305 0
-291 305 0
-292 305 0
-293 305 0
-294 305 0
-295 305 0
-296 305 0
-297 305 0
-298 305 0
-299 305 0
-300 305 0
306 0
307 -305 0
-307 305 0
-290 308 0
-291 308 0
-292 308 0
-293 308 0
-294 308 0
-295 308 0
-296 308 0
-297 308 0
-298 308 0
-299 308 0
-300 308 0
309 0
310 -308 0
-310 308 0
-291 311 0
-292 311 0
-293 311 0
-294 311 0
-295 311 0
-296 311 0
-297 311 0
-298 311 0
-299 311 0
-300 311 0
312 0
313 -311 0
-313 311 0
-292 314 0
-293 314 0
-294 314 0
-295 314 0
-296 314 0
-297 314 0
-298 314 0
-299 314 0
-300 314 0
315 0
316 -314 0
-316 314 0
-293 317 0
-294 317 0
-295 317 0
-296 317 0
-297 317 0
-298 317 0
-299 317 0
-300 317 0
318 0
319 -317 0
-319 317 0
-294 320 0
-295 320 0
-296 320 0
-297 320 0
-298 320 0
-299 320 0
-300 320 0
321 0
322 -320 0
-322 320 0
323 -320 0
-323 320 0
-296 324 0
-297 324 0
-298 324 0
-299 324 0
-300 324 0
-294 324 0
-295 324 0
325 0
326 -324 0
-326 324 0
327 -320 0
-327 320 0
328 -320 0
-328 320 0
329 -320 0
-329 320 0
330 -320 0
-330 320 0
331 -332 0
-333 331 0
331 -334 0
-335 331 0
331 -336 0
-337 331 0
331 -338 0
-339 331 0
331 -340 0
331 -341 0
331 -342 0
-343 331 0
344 0
10 -331 0
-10 331 0
-333 345 0
-334 345 0
-335 345 0
-336 345 0
-337 345 0
-338 345 0
-339 345 0
-340 345 0
-341 345 0
-342 345 0
-343 345 0
346 0
347 -345 0
-347 345 0
-334 348 0
-335 348 0
-336 348 0
-337 348 0
-338 348 0
-339 348 0
-340 348 0
-341 348 0
-342 348 0
-343 348 0
349 0
350 -348 0
-350 348 0
-335 351 0
-336 351 0
-337 351 0
-338 351 0
-339 351 0
-340 351 0
-341 351 0
-342 351 0
-343 351 0
352 0
353 -351 0
-353 351 0
-336 354 0
-337 354 0
-338 354 0
-339 354 0
-340 354 0
-341 354 0
-342 354 0
-343 354 0
355 0
356 -354 0
-356 354 0
-337 357 0
-338 357 0
-339 357 0
-340 357 0
-341 357 0
-342 357 0
-343 357 0
358 0
359 -357 0
-359 357 0
360 -357 0
-360 357 0
361 -357 0
-361 357 0
362 -357 0
-362 357 0
363 -357 0
-363 357 0
364 -357 0
-364 357 0
365 -357 0
-365 357 0
11 -366 0
-11 366 0
-367 -12 0
-367 -14 0
-367 -15 0
-367 -16 0
-367 -17 0
18 -367 0
19 -367 0
-367 -20 0
-367 -21 0
22 -367 0
23 -367 0
24 -367 0
-367 -25 0
-367 -26 0
56 -367 0
-367 -57 0
-367 -58 0
59 -367 0
-367 -60 0
61 -367 0
62 -367 0
63 -367 0
64 -367 0
-367 -65 0
-367 -84 0
-367 -86 0
-367 -87 0
-367 -88 0
-367 -89 0
90 -367 0
-367 -91 0
-367 -92 0
-367 -93 0
-367 -94 0
95 -367 0
96 -367 0
-367 -117 0
-367 -119 0
120 -367 0
-367 -121 0
-367 -122 0
123 -367 0
-367 -124 0
125 -367 0
-367 -126 0
-367 -127 0
128 -367 0
129 -367 0
130 -367 0
131 -367 0
-367 -160 0
-367 -162 0
-367 -163 0
164 -367 0
-367 -165 0
166 -367 0
167 -367 0
-367 -168 0
169 -367 0
-367 -170 0
-367 -171 0
-367 -191 0
-367 -193 0
-367 -194 0
-367 -195 0
-367 -196 0
197 -367 0
-367 -198 0
-367 -199 0
-367 -200 0
201 -367 0
202 -367 0
225 -367 0
-367 -226 0
-367 -227 0
228 -367 0
-367 -229 0
-367 -230 0
231 -367 0
232 -367 0
-367 -233 0
234 -367 0
-367 -235 0
-367 -236 0
237 -367 0
238 -367 0
-367 -239 0
-367 -272 0
273 -367 0
274 -367 0
-367 -275 0
-367 -286 0
-367 -288 0
-367 -289 0
-367 -290 0
-367 -291 0
292 -367 0
-367 -293 0
294 -367 0
-367 -295 0
296 -367 0
-367 -297 0
-367 -298 0
299 -367 0
300 -367 0
332 -367 0
-367 -333 0
334 -367 0
-367 -335 0
336 -367 0
-367 -337 0
338 -367 0
-367 -339 0
340 -367 0
341 -367 0
342 -367 0
-367 -343 0
-367 -366 0
367 0
-368 0
-369 0
-370 0
-371 0
-372 0
-373 0
-374 0
-375 0
